Mg2O4Si1   [ORC,ORC,oP28] (STD_PRIM doi:  [ORC,ORC,oP28] (STD_PRIM doi:10.1016/j.commatsci.2010.05.010)
1.000000
   4.79973191210718   0.00000000000000   0.00000000000000
   0.00000000000000   6.04340453447028   0.00000000000000
   0.00000000000000   0.00000000000000  10.31112420957830
Mg O Si 
8 16 4 
Direct(28) [A8B16C4] 
   0.00000000000000   0.00000000000000   0.00000000000000  Mg    
   0.50000000000000   0.00000000000000   0.50000000000000  Mg    
   0.00000000000000   0.50000000000000   0.00000000000000  Mg    
   0.50000000000000   0.50000000000000   0.50000000000000  Mg    
   0.99160979338092   0.75000000000000   0.27721968237483  Mg    
   0.49160979338092   0.25000000000000   0.22278031762517  Mg    
   0.00839020661908   0.25000000000000   0.72278031762517  Mg    
   0.50839020661908   0.75000000000000   0.77721968237483  Mg    
   0.76611260862995   0.75000000000000   0.09168304175104  O     
   0.26611260862995   0.25000000000000   0.40831695824896  O     
   0.23388739137005   0.25000000000000   0.90831695824896  O     
   0.73388739137005   0.75000000000000   0.59168304175104  O     
   0.22207786512539   0.75000000000000   0.44674285420713  O     
   0.72207786512539   0.25000000000000   0.05325714579287  O     
   0.77792213487461   0.25000000000000   0.55325714579287  O     
   0.27792213487461   0.75000000000000   0.94674285420713  O     
   0.27694127038727   0.96705291820249   0.16298321439344  O     
   0.77694127038727   0.03294708179751   0.33701678560656  O     
   0.72305872961273   0.46705291820249   0.83701678560656  O     
   0.22305872961273   0.53294708179751   0.66298321439344  O     
   0.72305872961273   0.03294708179751   0.83701678560656  O     
   0.22305872961273   0.96705291820249   0.66298321439344  O     
   0.27694127038727   0.53294708179751   0.16298321439344  O     
   0.77694127038727   0.46705291820249   0.33701678560656  O     
   0.42609086921385   0.75000000000000   0.09372774082034  Si    
   0.92609086921385   0.25000000000000   0.40627225917966  Si    
   0.57390913078615   0.25000000000000   0.90627225917966  Si    
   0.07390913078615   0.75000000000000   0.59372774082034  Si    
