Na2O4W1   [FCC,FCC,cF56] (STD_PRIM doi:1  [FCC,FCC,cF56] (STD_PRIM doi:10.1016/j.commatsci.2010.05.010)
1.224745
   0.00000000000000   3.65190675886907   3.65190675886907
   3.65190675886907   0.00000000000000   3.65190675886907
   3.65190675886907   3.65190675886907   0.00000000000000
Na O W 
4 8 2 
Direct(14) [A4B8C2] 
   0.12500000000000   0.62500000000000   0.62500000000000  Na    
   0.62500000000000   0.12500000000000   0.62500000000000  Na    
   0.62500000000000   0.62500000000000   0.12500000000000  Na    
   0.62500000000000   0.62500000000000   0.62500000000000  Na    
   0.90376323199111   0.36541225600297   0.36541225600296  O     
   0.36541225600297   0.90376323199111   0.36541225600296  O     
   0.36541225600297   0.36541225600297   0.90376323199109  O     
   0.36541225600297   0.36541225600297   0.36541225600296  O     
   0.88458774399703   0.34623676800889   0.88458774399704  O     
   0.34623676800889   0.88458774399703   0.88458774399704  O     
   0.88458774399703   0.88458774399703   0.34623676800891  O     
   0.88458774399703   0.88458774399703   0.88458774399704  O     
   0.00000000000000   0.00000000000000   0.00000000000000  W     
   0.25000000000000   0.25000000000000   0.25000000000000  W     
