Fe1O3Ti1   [RHL,RHL1,hR10] (STD_PRIM doi  [RHL,RHL1,hR10] (STD_PRIM doi:10.1016/j.commatsci.2010.05.010)
1.000000
   4.91887825085203  -2.54130865938822   0.00000000000000
   4.91887825085203   2.54130865938822   0.00000000000000
   3.60592652224137   0.00000000000000   4.20129823568656
Fe O Ti 
2 6 2 
Direct(10) [A2B6C2] 
   0.35114756731598   0.35114756731598   0.35114756731598  Fe    
   0.64885243268402   0.64885243268402   0.64885243268402  Fe    
   0.94435684314102   0.23133495235187   0.56333420413239  O     
   0.56333420413239   0.94435684314102   0.23133495235187  O     
   0.23133495235187   0.56333420413239   0.94435684314102  O     
   0.05564315685898   0.76866504764813   0.43666579586761  O     
   0.43666579586761   0.05564315685898   0.76866504764813  O     
   0.76866504764813   0.43666579586761   0.05564315685898  O     
   0.14765465881010   0.14765465881010   0.14765465881010  Ti    
   0.85234534118990   0.85234534118990   0.85234534118990  Ti    
