Ca1Li1N1   [ORC,ORC,oP12] (STD_PRIM doi:  [ORC,ORC,oP12] (STD_PRIM doi:10.1016/j.commatsci.2010.05.010)
1.000000
   3.66364547451480   0.00000000000000   0.00000000000000
   0.00000000000000   5.55290885640344   0.00000000000000
   0.00000000000000   0.00000000000000   8.50985746108575
Ca Li N 
4 4 4 
Direct(12) [A4B4C4] 
   0.75000000000000   0.97357901175630   0.15652075564899  Ca    
   0.25000000000000   0.47357901175630   0.34347924435101  Ca    
   0.25000000000000   0.02642098824370   0.84347924435101  Ca    
   0.75000000000000   0.52642098824370   0.65652075564899  Ca    
   0.75000000000000   0.42458380139196   0.04682289878356  Li    
   0.25000000000000   0.92458380139196   0.45317710121644  Li    
   0.25000000000000   0.57541619860804   0.95317710121644  Li    
   0.75000000000000   0.07541619860804   0.54682289878356  Li    
   0.75000000000000   0.76005199156029   0.40775745098769  N     
   0.25000000000000   0.26005199156029   0.09224254901231  N     
   0.25000000000000   0.23994800843971   0.59224254901231  N     
   0.75000000000000   0.73994800843971   0.90775745098769  N     
