Na2O4W1   [FCC,FCC,cF56] (STD_PRIM doi:1  [FCC,FCC,cF56] (STD_PRIM doi:10.1016/j.commatsci.2010.05.010)
1.224745
   0.00000000000000   3.69189602520831   3.69189602520831
   3.69189602520831   0.00000000000000   3.69189602520831
   3.69189602520831   3.69189602520831   0.00000000000000
Na O W 
4 8 2 
Direct(14) [A4B8C2] 
   0.12500000000000   0.62500000000000   0.62500000000000  Na    
   0.62500000000000   0.12500000000000   0.62500000000000  Na    
   0.62500000000000   0.62500000000000   0.12500000000000  Na    
   0.62500000000000   0.62500000000000   0.62500000000000  Na    
   0.90683720220960   0.36438759926347   0.36438759926346  O     
   0.36438759926347   0.90683720220960   0.36438759926346  O     
   0.36438759926347   0.36438759926347   0.90683720220959  O     
   0.36438759926347   0.36438759926347   0.36438759926346  O     
   0.88561240073653   0.34316279779040   0.88561240073654  O     
   0.34316279779040   0.88561240073653   0.88561240073654  O     
   0.88561240073653   0.88561240073653   0.34316279779041  O     
   0.88561240073653   0.88561240073653   0.88561240073654  O     
   0.00000000000000   0.00000000000000   0.00000000000000  W     
   0.25000000000000   0.25000000000000   0.25000000000000  W     
