Ca1Fe2O4   [ORC,ORC,oP28] (STD_PRIM doi:  [ORC,ORC,oP28] (STD_PRIM doi:10.1016/j.commatsci.2010.05.010)
1.000000
   2.96823838012548   0.00000000000000   0.00000000000000
   0.00000000000000   8.87590998379981   0.00000000000000
   0.00000000000000   0.00000000000000  10.26585062986409
Ca Fe O 
4 8 16 
Direct(28) [A4B8C16] 
   0.25000000000000   0.24012352514471   0.65879456365854  Ca    
   0.75000000000000   0.25987647485529   0.15879456365854  Ca    
   0.75000000000000   0.75987647485529   0.34120543634146  Ca    
   0.25000000000000   0.74012352514471   0.84120543634146  Ca    
   0.25000000000000   0.08548098942650   0.39788222459641  Fe    
   0.75000000000000   0.41451901057350   0.89788222459641  Fe    
   0.75000000000000   0.91451901057350   0.60211777540359  Fe    
   0.25000000000000   0.58548098942650   0.10211777540359  Fe    
   0.25000000000000   0.05796860813050   0.88616634597641  Fe    
   0.75000000000000   0.44203139186950   0.38616634597641  Fe    
   0.75000000000000   0.94203139186950   0.11383365402359  Fe    
   0.25000000000000   0.55796860813050   0.61383365402359  Fe    
   0.25000000000000   0.30078321834872   0.34744668288949  O     
   0.75000000000000   0.19921678165128   0.84744668288949  O     
   0.75000000000000   0.69921678165128   0.65255331711051  O     
   0.25000000000000   0.80078321834872   0.15255331711051  O     
   0.25000000000000   0.38768351635116   0.02094990405585  O     
   0.75000000000000   0.11231648364884   0.52094990405585  O     
   0.75000000000000   0.61231648364885   0.97905009594415  O     
   0.25000000000000   0.88768351635115   0.47905009594415  O     
   0.25000000000000   0.47153300634817   0.78718255878297  O     
   0.75000000000000   0.02846699365183   0.28718255878297  O     
   0.75000000000000   0.52846699365183   0.21281744121703  O     
   0.25000000000000   0.97153300634817   0.71281744121703  O     
   0.25000000000000   0.07919774606215   0.07272612322478  O     
   0.75000000000000   0.42080225393785   0.57272612322478  O     
   0.75000000000000   0.92080225393785   0.92727387677522  O     
   0.25000000000000   0.57919774606215   0.42727387677522  O     
