Fe3O4   [FCC,FCC,cF56] (STD_PRIM doi:10.  [RHL,RHL1,hR14] (STD_PRIM doi:10.1016/j.commatsci.2010.05.010)
1.000000
   4.95020452439228  -2.83707835846143   0.00000000000000
   4.95020452439228   2.83707835846143   0.00000000000000
   3.32420835142842   0.00000000000000   4.63715185018321
Fe O 
6 8 
Direct(14) [A6B8] 
   0.87128471154133   0.87128471154133   0.37128471154134  Fe    
   0.12871528845867   0.12871528845867   0.62871528845866  Fe    
   0.50000000000000   0.50000000000000   0.50000000000000  Fe    
  -0.00000000000000   0.50000000000000   0.00000000000000  Fe    
   0.50000000000000   0.50000000000000   0.00000000000000  Fe    
   0.50000000000000   0.00000000000000  -0.00000000000000  Fe    
   0.73831821639647   0.73831821639647   0.76889518274854  O     
   0.26889518274853   0.73831821639647   0.23831821639648  O     
   0.74395031457611   0.74395031457611   0.24395031457611  O     
   0.73831821639647   0.26889518274853   0.23831821639648  O     
   0.73110481725147   0.26168178360353   0.76168178360352  O     
   0.26168178360353   0.26168178360353   0.23110481725146  O     
   0.25604968542389   0.25604968542389   0.75604968542389  O     
   0.26168178360353   0.73110481725147   0.76168178360352  O     
