Li1Nb1O3   [RHL,RHL1,hR10] (STD_PRIM doi  [RHL,RHL1,hR10] (STD_PRIM doi:10.1016/j.commatsci.2010.05.010)
1.000000
   4.90162272906737  -2.59351360989626   0.00000000000000
   4.90162272906737   2.59351360989626   0.00000000000000
   3.52936027303846   0.00000000000000   4.27736300609674
Li Nb O 
2 2 6 
Direct(10) [A2B2C6] 
   0.27857713432249   0.27857713432249   0.27857713432249  Li    
   0.77857713432249   0.77857713432249   0.77857713432249  Li    
   0.99767584205374   0.99767584205374   0.99767584205374  Nb    
   0.49767584205374   0.49767584205374   0.49767584205374  Nb    
   0.71881626662155   0.10825662898243   0.35547412801980  O     
   0.35547412801980   0.71881626662155   0.10825662898243  O     
   0.10825662898243   0.35547412801980   0.71881626662155  O     
   0.60825662898244   0.21881626662155   0.85547412801980  O     
   0.21881626662155   0.85547412801980   0.60825662898244  O     
   0.85547412801980   0.60825662898244   0.21881626662155  O     
