Fe1O3Ti1   [RHL,RHL1,hR10] (STD_PRIM doi  [RHL,RHL1,hR10] (STD_PRIM doi:10.1016/j.commatsci.2010.05.010)
1.000000
   4.84616020692839  -2.52637486761977   0.00000000000000
   4.84616020692839   2.52637486761977   0.00000000000000
   3.52912368745553   0.00000000000000   4.17290363195668
Fe O Ti 
2 6 2 
Direct(10) [A2B6C2] 
   0.35180001064966   0.35180001064966   0.35180001064966  Fe    
   0.64819998935034   0.64819998935034   0.64819998935034  Fe    
   0.56175705857825   0.94493158711806   0.23395121123590  O     
   0.23395121123590   0.56175705857825   0.94493158711806  O     
   0.94493158711806   0.23395121123590   0.56175705857825  O     
   0.43824294142175   0.05506841288194   0.76604878876410  O     
   0.76604878876410   0.43824294142175   0.05506841288194  O     
   0.05506841288194   0.76604878876410   0.43824294142175  O     
   0.14887450896237   0.14887450896237   0.14887450896237  Ti    
   0.85112549103763   0.85112549103763   0.85112549103763  Ti    
