Li1Nb1O3   [RHL,RHL1,hR10] (STD_PRIM doi  [RHL,RHL1,hR10] (STD_PRIM doi:10.1016/j.commatsci.2010.05.010)
1.000000
   4.85175515430637  -2.56288276435501   0.00000000000000
   4.85175515430637   2.56288276435501   0.00000000000000
   3.49794238863167   0.00000000000000   4.22756374132670
Li Nb O 
2 2 6 
Direct(10) [A2B2C6] 
   0.27958049802714   0.27958049802715   0.27958049802714  Li    
   0.77958049802714   0.77958049802714   0.77958049802714  Li    
   0.99750667456703   0.99750667456703   0.99750667456703  Nb    
   0.49750667456703   0.49750667456703   0.49750667456703  Nb    
   0.71699080440825   0.10520373492660   0.35951828807099  O     
   0.35951828807099   0.71699080440825   0.10520373492660  O     
   0.10520373492660   0.35951828807099   0.71699080440825  O     
   0.60520373492661   0.21699080440825   0.85951828807099  O     
   0.21699080440825   0.85951828807099   0.60520373492661  O     
   0.85951828807099   0.60520373492661   0.21699080440825  O     
