Fe3O4   [FCC,FCC,cF56] (STD_PRIM doi:10.  [FCC,FCC,cF56] (STD_PRIM doi:10.1016/j.commatsci.2010.05.010)
1.224745
   0.00000000000000   3.40391651797854   3.40391651797854
   3.40391651797854   0.00000000000000   3.40391651797854
   3.40391651797854   3.40391651797854   0.00000000000000
Fe O 
6 8 
Direct(14) [A6B8] 
   0.12500000000000   0.12500000000000   0.12500000000000  Fe    
   0.87500000000000   0.87500000000000   0.87500000000000  Fe    
   0.50000000000000   0.50000000000000   0.50000000000000  Fe    
   0.00000000000000   0.50000000000000   0.50000000000000  Fe    
   0.50000000000000   0.50000000000000   0.00000000000000  Fe    
   0.50000000000000   0.00000000000000   0.50000000000000  Fe    
   0.25468543114732   0.25468543114732   0.25468543114730  O     
   0.73594370655807   0.25468543114732   0.25468543114729  O     
   0.25468543114732   0.25468543114732   0.73594370655804  O     
   0.25468543114732   0.73594370655807   0.25468543114729  O     
   0.26405629344193   0.74531456885268   0.74531456885271  O     
   0.74531456885268   0.74531456885268   0.74531456885270  O     
   0.74531456885268   0.74531456885268   0.26405629344196  O     
   0.74531456885268   0.26405629344193   0.74531456885271  O     
