Ca1Li1N1   [ORC,ORC,oP12] (STD_PRIM doi:  [ORC,ORC,oP12] (STD_PRIM doi:10.1016/j.commatsci.2010.05.010)
1.000000
   3.67004996646204   0.00000000000000   0.00000000000000
   0.00000000000000   5.55533002233934   0.00000000000000
   0.00000000000000   0.00000000000000   8.50475649626056
Ca Li N
4 4 4 
Direct(12) [A4B4C4] 
   0.75000000000000   0.97364817263583   0.15634303690682 
   0.25000000000000   0.47364817263583   0.34365696309318 
   0.25000000000000   0.02635182736417   0.84365696309318 
   0.75000000000000   0.52635182736417   0.65634303690682 
   0.75000000000000   0.42552758258204   0.04747830235573 
   0.25000000000000   0.92552758258204   0.45252169764427 
   0.25000000000000   0.57447241741796   0.95252169764427 
   0.75000000000000   0.07447241741796   0.54747830235573 
   0.75000000000000   0.75918224690025   0.40727783163598 
   0.25000000000000   0.25918224690025   0.09272216836402 
   0.25000000000000   0.24081775309975   0.59272216836402 
   0.75000000000000   0.74081775309975   0.90727783163598 
