Fe3O4   [FCC,FCC,cF56] (STD_PRIM doi:10.  [FCC,FCC,cF56] (STD_PRIM doi:10.1016/j.commatsci.2010.05.010)
1.224745
   0.00000000000000   3.42463670943025   3.42463670943025
   3.42463670943025   0.00000000000000   3.42463670943025
   3.42463670943025   3.42463670943025   0.00000000000000
Fe O 
6 8 
Direct(14) [A6B8] 
   0.87500000000000   0.87500000000000   0.37500000000000  Fe    
   0.12500000000000   0.12500000000000   0.62500000000000  Fe    
   0.50000000000000   0.50000000000000   0.50000000000000  Fe    
   0.00000000000000   0.50000000000000   0.00000000000000  Fe    
   0.50000000000000   0.50000000000000   0.00000000000000  Fe    
   0.50000000000000   0.00000000000000   0.00000000000000  Fe    
   0.74544843575987   0.74544843575987   0.76365469272037  O     
   0.26365469272036   0.74544843575987   0.24544843575988  O     
   0.74544843575987   0.74544843575987   0.24544843575987  O     
   0.74544843575987   0.26365469272036   0.24544843575988  O     
   0.73634530727964   0.25455156424013   0.75455156424012  O     
   0.25455156424013   0.25455156424013   0.23634530727963  O     
   0.25455156424013   0.25455156424013   0.75455156424013  O     
   0.25455156424013   0.73634530727964   0.75455156424012  O     
