Li2O2   [HEX,HEX,hP8] (STD_PRIM doi:10.1  [HEX,HEX,hP8] (STD_PRIM doi:10.1016/j.commatsci.2010.05.010)
1.000000
   1.54413581362702  -2.67452168298871   0.00000000000000
   1.54413581362702   2.67452168298871   0.00000000000000
   0.00000000000000   0.00000000000000   7.43567404172941
Li O 
4 4 
Direct(8) [A4B4] 
   0.00000000000000   0.00000000000000   0.00000000000000  Li    
   0.00000000000000   0.00000000000000   0.50000000000000  Li    
   0.33332035796602   0.66666017898301   0.25000000000000  Li    
   0.66667964203398   0.33333982101699   0.75000000000000  Li    
   0.33334625202863   0.66667312601431   0.64787895455726  O     
   0.66665374797137   0.33332687398569   0.14787895455726  O     
   0.66665374797137   0.33332687398569   0.35212104544274  O     
   0.33334625202863   0.66667312601431   0.85212104544274  O     
