Cu1Fe1O2   [RHL,RHL1,hR4] (STD_PRIM doi:  [RHL,RHL1,hR4] (STD_PRIM doi:10.1016/j.commatsci.2010.05.010)
1.000000
   5.76788005261403  -1.36771945979742   0.00000000000000
   5.76788005261403   1.36771945979742   0.00000000000000
   5.44355699047602   0.00000000000000   2.34665381202492
Cu Fe O 
1 1 2 
Direct(4) [A1B1C2] 
   0.00000000000000   0.00000000000000   0.00000000000000  Cu    
   0.50000000000000   0.50000000000000   0.50000000000000  Fe    
   0.10646368610065   0.10646368610065   0.10646368610065  O     
   0.89353631389935   0.89353631389935   0.89353631389935  O     
