Mn1Mo1O4   [MCL,MCL,mP12] (STD_PRIM doi:  [MCL,MCL,mP12] (STD_PRIM doi:10.1016/j.commatsci.2010.05.010)
1.000000
   5.41184760749001   0.00000000000000   0.00000000000000
   0.00000000000000   4.46668391639984   0.00000000000000
   0.00000000000000   0.10645572288487   4.72271781856094
Mn Mo O 
2 2 8 
Direct(12) [A2B2C8] 
   0.12505782656240   0.00000000000000   0.25000000000000  Mn    
   0.87494217343760   0.00000000000000   0.75000000000000  Mn    
   0.37502008673082   0.50000000000000   0.75000000000000  Mo    
   0.62497991326918   0.50000000000000   0.25000000000000  Mo    
   0.12488764055317   0.76655659772351   0.58122646022583  O     
   0.12488764055317   0.23344340227649   0.91877353977417  O     
   0.87511235944683   0.23344340227649   0.41877353977417  O     
   0.87511235944683   0.76655659772351   0.08122646022583  O     
   0.36300594572220   0.75547926700487   0.09552440536771  O     
   0.36300594572220   0.24452073299513   0.40447559463229  O     
   0.63699405427780   0.24452073299513   0.90447559463229  O     
   0.63699405427780   0.75547926700487   0.59552440536771  O     
