Na1O2   [CUB,CUB,cP12] (STD_PRIM doi:10.  [CUB,CUB,cP12] (STD_PRIM doi:10.1016/j.commatsci.2010.05.010)
1.000000
   5.51545140496158   0.00000000000000   0.00000000000000
   0.00000000000000   5.51545140496158   0.00000000000000
   0.00000000000000   0.00000000000000   5.51545140496158
Na O 
4 8 
Direct(12) [A4B8] 
   0.00000000000000   0.00000000000000   0.00000000000000 
   0.50000000000000   0.00000000000000   0.50000000000000 
   0.00000000000000   0.50000000000000   0.50000000000000 
   0.50000000000000   0.50000000000000   0.00000000000000 
   0.57079170448122   0.57079170448122   0.42920829551878 
   0.92920829551878   0.42920829551878   0.92920829551878 
   0.42920829551878   0.07079170448122   0.07079170448122 
   0.07079170448122   0.92920829551878   0.57079170448122 
   0.42920829551878   0.42920829551878   0.57079170448122 
   0.07079170448122   0.57079170448122   0.07079170448122 
   0.57079170448122   0.92920829551878   0.92920829551878 
   0.92920829551878   0.07079170448122   0.42920829551878 
