Li1O3Ta1   [RHL,RHL1,hR10] (STD_PRIM doi  [RHL,RHL1,hR10] (STD_PRIM doi:10.1016/j.commatsci.2010.05.010)
1.000000
   4.83046389244183  -2.56257697139782   0.00000000000000
   4.83046389244183   2.56257697139782   0.00000000000000
   3.47100838660244   0.00000000000000   4.22519620025606
Li O Ta 
2 6 2 
Direct(10) [A2B6C2] 
   0.28389702402174   0.28389702402174   0.28389702402174  Li    
   0.78389702402174   0.78389702402174   0.78389702402174  Li    
   0.11522357456842   0.36581323546569   0.72480613736426  O     
   0.72480613736426   0.11522357456842   0.36581323546569  O     
   0.36581323546569   0.72480613736426   0.11522357456842  O     
   0.22480613736426   0.86581323546569   0.61522357456842  O     
   0.86581323546569   0.61522357456842   0.22480613736426  O     
   0.61522357456842   0.22480613736426   0.86581323546569  O     
   0.00086002857987   0.00086002857987   0.00086002857987  Ta    
   0.50086002857987   0.50086002857987   0.50086002857987  Ta    
