O5Ti3   [MCLC,MCLC1,mS32] (STD_PRIM doi:  [MCL,MCL,mP16] (STD_PRIM doi:10.1016/j.commatsci.2010.05.010)
0.999999
   9.72692828720673   0.00000000000000   0.00000000000000
   0.00000000000000   3.79796234628794   0.00000000000000
   0.00000000000000   1.89898117314397   4.72443143694951
O Ti 
10 6 
Direct(16) [A10B6] 
   0.75622241699023   0.24183561631343   0.51632876737315  O     
   0.24377758300977   0.75816438368657   0.48367123262685  O     
   0.13269194761122   0.04485527864756   0.91028944270488  O     
   0.86730805238878   0.95514472135244   0.08971055729512  O     
   0.38461434218297   0.05020955239107   0.89958089521786  O     
   0.61538565781703   0.94979044760893   0.10041910478215  O     
   0.06585987108600   0.32971232596710   0.34057534806581  O     
   0.93414012891400   0.67028767403290   0.65942465193419  O     
   0.43436587963072   0.31583945076645   0.36832109846709  O     
   0.56563412036928   0.68416054923355   0.63167890153291  O     
   0.75354653182495   0.79895509556910   0.40208980886180  Ti    
   0.24645346817505   0.20104490443090   0.59791019113820  Ti    
   0.95374942072864   0.13412180845994   0.73175638308012  Ti    
   0.04625057927136   0.86587819154006   0.26824361691988  Ti    
   0.57225574533980   0.13849263962755   0.72301472074489  Ti    
   0.42774425466020   0.86150736037245   0.27698527925511  Ti    
