K1O2   [BCT,BCT2,tI6] (STD_PRIM doi:10.1  [BCT,BCT2,tI6] (STD_PRIM doi:10.1016/j.commatsci.2010.05.010)
1.000000
  -1.92174466480987   1.92174466480987   3.29530994212091
   1.92174466480987  -1.92174466480987   3.29530994212091
   1.92174466480987   1.92174466480987  -3.29530994212091
K O 
1 2 
Direct(3) [A1B2] 
   0.50000000000000   0.50000000000000   0.00000000000000  K     
   0.10198653727271   0.10198653727271   0.00000000000000  O     
   0.89801346272729   0.89801346272729   0.00000000000000  O     
