Ba1O3Ti1   [CUB,CUB,cP5] (STD_PRIM doi:1  [CUB,CUB,cP5] (STD_PRIM doi:10.1016/j.commatsci.2010.05.010)
1.000000
   3.95062805394990   0.00000000000000   0.00000000000000
   0.00000000000000   3.95062805394990   0.00000000000000
   0.00000000000000   0.00000000000000   3.95062805394990
Ba O Ti 
1 3 1 
Direct(5) [A1B3C1] 
   0.00000000000000   0.00000000000000   0.00000000000000  Ba    
   0.50000000000000   0.50000000000000   0.00000000000000  O     
   0.50000000000000   0.00000000000000   0.50000000000000  O     
   0.00000000000000   0.50000000000000   0.50000000000000  O     
   0.50000000000000   0.50000000000000   0.50000000000000  Ti    
