Mo1O4Pb1   [BCT,BCT2,tI24] (STD_PRIM doi  [BCT,BCT2,tI24] (STD_PRIM doi:10.1016/j.commatsci.2010.05.010)
1.000000
  -2.68534986969671   2.68534986969671   5.84634843840574
   2.68534986969671  -2.68534986969671   5.84634843840574
   2.68534986969671   2.68534986969671  -5.84634843840574
Mo O Pb 
2 8 2 
Direct(12) [A2B8C2] 
   0.62500000000000   0.87500000000000   0.25000000000000  Mo    
   0.37500000000000   0.12500000000000   0.75000000000000  Mo    
   0.77312384068615   0.64410943058371   0.33464942143689  O     
   0.30946000914684   0.93847441924928   0.16535057856311  O     
   0.14410943058372   0.80946000914684   0.37098558989757  O     
   0.43847441924926   0.27312384068615   0.12901441010243  O     
   0.22687615931385   0.35589056941628   0.66535057856311  O     
   0.69053999085316   0.06152558075072   0.83464942143689  O     
   0.85589056941628   0.19053999085316   0.62901441010243  O     
   0.56152558075074   0.72687615931385   0.87098558989757  O     
   0.87500000000000   0.62500000000000   0.75000000000000  Pb    
   0.12500000000000   0.37500000000000   0.25000000000000  Pb    
