Mo1O4Pb1   [BCT,BCT2,tI24] (STD_PRIM doi  [BCT,BCT2,tI24] (STD_PRIM doi:10.1016/j.commatsci.2010.05.010)
1.000000
  -2.75164507096100   2.75164507096100   6.14353542458505
   2.75164507096100  -2.75164507096100   6.14353542458505
   2.75164507096100   2.75164507096100  -6.14353542458505
Mo O Pb 
2 8 2 
Direct(12) [A2B8C2] 
   0.62500000000000   0.87500000000000   0.25000000000000  Mo    
   0.37500000000000   0.12500000000000   0.75000000000000  Mo    
   0.77932643533084   0.66016509700446   0.34952907742695  O     
   0.31063601957751   0.92979735790389   0.15047092257306  O     
   0.16016509700447   0.81063601957752   0.38083866167363  O     
   0.42979735790388   0.27932643533082   0.11916133832637  O     
   0.22067356466916   0.33983490299554   0.65047092257305  O     
   0.68936398042249   0.07020264209611   0.84952907742694  O     
   0.83983490299553   0.18936398042248   0.61916133832637  O     
   0.57020264209612   0.72067356466918   0.88083866167363  O     
   0.87500000000000   0.62500000000000   0.75000000000000  Pb    
   0.12500000000000   0.37500000000000   0.25000000000000  Pb    
