Ba1O2   [BCT,BCT2,tI6] (STD_PRIM doi:10.  [BCT,BCT2,tI6] (STD_PRIM doi:10.1016/j.commatsci.2010.05.010)
1.000000
  -1.88329058820301   1.88329058820301   3.35492643937050
   1.88329058820301  -1.88329058820301   3.35492643937050
   1.88329058820301   1.88329058820301  -3.35492643937050
Ba O 
1 2 
Direct(3) [A1B2] 
   0.00000000000000   0.00000000000000   0.00000000000000  Ba    
   0.39067615038919   0.39067615038919   0.00000000000000  O     
   0.60932384961081   0.60932384961081  -0.00000000000000  O     
