Ba1O2   [BCT,BCT2,tI6] (STD_PRIM doi:10.  [BCT,BCT2,tI6] (STD_PRIM doi:10.1016/j.commatsci.2010.05.010)
1.000000
  -1.93235395394789   1.93235395394789   3.48753139630123
   1.93235395394789  -1.93235395394789   3.48753139630123
   1.93235395394789   1.93235395394789  -3.48753139630123
Ba O 
1 2 
Direct(3) [A1B2] 
   0.00000000000000   0.00000000000000   0.00000000000000 
   0.39226822528945   0.39226822528945   0.00000000000000 
   0.60773177471055   0.60773177471055   0.00000000000000 
