Li2O2   [HEX,HEX,hP8] (STD_PRIM doi:10.1  [HEX,HEX,hP8] (STD_PRIM doi:10.1016/j.commatsci.2010.05.010)
1.000001
   1.58201694585641  -2.74013372865824   0.00000000000000
   1.58201694585641   2.74013372865824   0.00000000000000
   0.00000000000000   0.00000000000000   7.68670402519892
Li O 
4 4 
Direct(8) [A4B4] 
   0.00000000000000   0.00000000000000   0.00000000000000  Li    
   0.00000000000000   0.00000000000000   0.50000000000000  Li    
   0.33331863298911   0.66665931649457   0.25000000000000  Li    
   0.66668136701089   0.33334068350543   0.75000000000000  Li    
   0.33334866473141   0.66667433236569   0.64924746926234  O     
   0.66665133526859   0.33332566763431   0.14924746926234  O     
   0.66665133526859   0.33332566763431   0.35075253073766  O     
   0.33334866473141   0.66667433236569   0.85075253073766  O     
