Ca2O7V2   [TRI,TRI1b,aP22] (STD_PRIM doi  [TRI,TRI1a,aP22] (STD_PRIM doi:10.1016/j.commatsci.2010.05.010)
1.000000
   6.73959068874993   0.00000000000000   0.00000000000000
   1.01370879950881   6.98239424295263   0.00000000000000
   3.15443949368806   0.13501171114380   6.39610836202769
Ca O V 
4 14 4 
Direct(22) [A4B14C4] 
   0.74498597314773   0.34103021079219   0.82939581233158  Ca    
   0.25501402685227   0.65896978920781   0.17060418766842  Ca    
   0.74204774562475   0.96003689583347   0.24104029457511  Ca    
   0.25795225437525   0.03996310416653   0.75895970542489  Ca    
   0.04508380200268   0.70223919347090   0.56765694339700  O     
   0.95491619799732   0.29776080652910   0.43234305660300  O     
   0.54373374156338   0.40905884524750   0.62873157422923  O     
   0.45626625843662   0.59094115475250   0.37126842577077  O     
   0.65102091258841   0.94760887459079   0.60762594250501  O     
   0.34897908741159   0.05239112540921   0.39237405749499  O     
   0.63794859120707   0.67826452558934   0.91945388309585  O     
   0.36205140879293   0.32173547441066   0.08054611690415  O     
   0.85698613522055   0.00413131874851   0.86583383216631  O     
   0.14301386477945   0.99586868125151   0.13416616783369  O     
   0.76074524450630   0.29322133610515   0.16822093732507  O     
   0.23925475549370   0.70677866389485   0.83177906267493  O     
   0.88245414863766   0.63604773404597   0.24454610707866  O     
   0.11754585136234   0.36395226595403   0.75545389292134  O     
   0.72402896629067   0.45408639331705   0.34443132637790  V     
   0.27597103370934   0.54591360668295   0.65556867362210  V     
   0.79779158202380   0.83304045735600   0.73780146415185  V     
   0.20220841797620   0.16695954264400   0.26219853584816  V     
