Hf1N1   [FCC,FCC,cF8] (STD_PRIM doi:10.1  [FCC,FCC,cF8] (STD_PRIM doi:10.1016/j.commatsci.2010.05.010)
1.224745
   0.00000000000000   1.85244962058966   1.85244962058966
   1.85244962058966   0.00000000000000   1.85244962058966
   1.85244962058966   1.85244962058966   0.00000000000000
Hf N
1 1 
Direct(2) [A1B1] 
   0.00000000000000   0.00000000000000   0.00000000000000 
   0.50000000000000   0.50000000000000   0.50000000000000 
