Na2O4W1   [FCC,FCC,cF56] (STD_PRIM doi:1  [FCC,FCC,cF56] (STD_PRIM doi:10.1016/j.commatsci.2010.05.010)
1.224745
   0.00000000000000   3.77499090770686   3.77499090770686
   3.77499090770686   0.00000000000000   3.77499090770686
   3.77499090770686   3.77499090770686   0.00000000000000
Na O W 
4 8 2 
Direct(14) [A4B8C2] 
   0.12500000000000   0.62500000000000   0.62500000000000  Na    
   0.62500000000000   0.12500000000000   0.62500000000000  Na    
   0.62500000000000   0.62500000000000   0.12500000000000  Na    
   0.62500000000000   0.62500000000000   0.62500000000000  Na    
   0.91173396931796   0.36275534356068   0.36275534356068  O     
   0.36275534356068   0.91173396931796   0.36275534356068  O     
   0.36275534356068   0.36275534356068   0.91173396931796  O     
   0.36275534356068   0.36275534356068   0.36275534356068  O     
   0.88724465643932   0.33826603068204   0.88724465643932  O     
   0.33826603068204   0.88724465643932   0.88724465643932  O     
   0.88724465643932   0.88724465643932   0.33826603068204  O     
   0.88724465643932   0.88724465643932   0.88724465643932  O     
   0.00000000000000   0.00000000000000   0.00000000000000  W     
   0.25000000000000   0.25000000000000   0.25000000000000  W     
