Na1O2   [CUB,CUB,cP12] (STD_PRIM doi:10.  [CUB,CUB,cP12] (STD_PRIM doi:10.1016/j.commatsci.2010.05.010)
1.000000
   5.36666334566069   0.00000000000000   0.00000000000000
   0.00000000000000   5.36666334566069   0.00000000000000
   0.00000000000000   0.00000000000000   5.36666334566069
Na O 
4 8 
Direct(12) [A4B8] 
   0.00000000000000   0.00000000000000   0.00000000000000  Na    
   0.50000000000000   0.00000000000000   0.50000000000000  Na    
   0.00000000000000   0.50000000000000   0.50000000000000  Na    
   0.50000000000000   0.50000000000000   0.00000000000000  Na    
   0.57236772598132   0.57236772598132   0.42763227401868  O     
   0.92763227401868   0.42763227401868   0.92763227401868  O     
   0.42763227401868   0.07236772598132   0.07236772598132  O     
   0.07236772598132   0.92763227401868   0.57236772598132  O     
   0.42763227401868   0.42763227401868   0.57236772598132  O     
   0.07236772598132   0.57236772598132   0.07236772598132  O     
   0.57236772598132   0.92763227401868   0.92763227401868  O     
   0.92763227401868   0.07236772598132   0.42763227401868  O     
