Li1O3Ta1   [RHL,RHL1,hR10] (STD_PRIM doi  [RHL,RHL1,hR10] (STD_PRIM doi:10.1016/j.commatsci.2010.05.010)
1.000000
   4.87781638065335  -2.59690506518449   0.00000000000000
   4.87781638065335   2.59690506518449   0.00000000000000
   3.49524774926145   0.00000000000000   4.28021631839254
Li O Ta 
2 6 2 
Direct(10) [A2B6C2] 
   0.28184114439475   0.28184114439475   0.28184114439475  Li    
   0.78184114439475   0.78184114439475   0.78184114439475  Li    
   0.11877061827948   0.36311710640932   0.72698988268700  O     
   0.72698988268700   0.11877061827948   0.36311710640932  O     
   0.36311710640932   0.72698988268700   0.11877061827948  O     
   0.22698988268700   0.86311710640932   0.61877061827948  O     
   0.86311710640932   0.61877061827948   0.22698988268700  O     
   0.61877061827948   0.22698988268700   0.86311710640932  O     
   0.99988124822945   0.99988124822945   0.99988124822945  Ta    
   0.49988124822945   0.49988124822945   0.49988124822945  Ta    
