K1O2   [BCT,BCT2,tI6] (STD_PRIM doi:10.1  [BCT,BCT2,tI6] (STD_PRIM doi:10.1016/j.commatsci.2010.05.010)
1.000000
  -1.87045037292655   1.87045037292655   3.20773204078082
   1.87045037292655  -1.87045037292655   3.20773204078082
   1.87045037292655   1.87045037292655  -3.20773204078082
K O 
1 2 
Direct(3) [A1B2] 
   0.50000000000000   0.50000000000000   0.00000000000000  K     
   0.10378914980628   0.10378914980628   0.00000000000000  O     
   0.89621085019372   0.89621085019372   0.00000000000000  O     
