Na1O2   [CUB,CUB,cP12] (STD_PRIM doi:10.  [CUB,CUB,cP12] (STD_PRIM doi:10.1016/j.commatsci.2010.05.010)
1.000000
   5.52495073953793   0.00000000000000   0.00000000000000
   0.00000000000000   5.52495073953793   0.00000000000000
   0.00000000000000   0.00000000000000   5.52495073953793
Na O 
4 8 
Direct(12) [A4B8] 
   0.00000000000000   0.00000000000000   0.00000000000000  Na    
   0.50000000000000   0.00000000000000   0.50000000000000  Na    
   0.00000000000000   0.50000000000000   0.50000000000000  Na    
   0.50000000000000   0.50000000000000   0.00000000000000  Na    
   0.57074163991908   0.57074163991908   0.42925836008092  O     
   0.92925836008092   0.42925836008092   0.92925836008092  O     
   0.42925836008092   0.07074163991908   0.07074163991908  O     
   0.07074163991908   0.92925836008092   0.57074163991908  O     
   0.42925836008092   0.42925836008092   0.57074163991908  O     
   0.07074163991908   0.57074163991908   0.07074163991908  O     
   0.57074163991908   0.92925836008092   0.92925836008092  O     
   0.92925836008092   0.07074163991908   0.42925836008092  O     
