Li1Nb1O3   [RHL,RHL1,hR10] (STD_PRIM doi  [RHL,RHL1,hR10] (STD_PRIM doi:10.1016/j.commatsci.2010.05.010)
1.000000
   4.79294816391208  -2.54046575954453   0.00000000000000
   4.79294816391208   2.54046575954453   0.00000000000000
   3.44639358942023   0.00000000000000   4.18911561122029
Li Nb O 
2 2 6 
Direct(10) [A2B2C6] 
   0.27913823038273   0.27913823038273   0.27913823038273  Li    
   0.77913823038273   0.77913823038273   0.77913823038273  Li    
   0.99557163633390   0.99557163633390   0.99557163633390  Nb    
   0.49557163633390   0.49557163633390   0.49557163633390  Nb    
   0.71596637060227   0.10591628629064   0.36220747639045  O     
   0.36220747639045   0.71596637060227   0.10591628629064  O     
   0.10591628629064   0.36220747639045   0.71596637060227  O     
   0.60591628629064   0.21596637060227   0.86220747639045  O     
   0.21596637060227   0.86220747639045   0.60591628629064  O     
   0.86220747639045   0.60591628629064   0.21596637060227  O     
