Ca2Fe2O5   [ORC,ORC,oP36] (STD_PRIM doi:  [ORC,ORC,oP36] (STD_PRIM doi:10.1016/j.commatsci.2010.05.010)
1.000000
   5.18539842818694   0.00000000000000   0.00000000000000
   0.00000000000000   5.28311436804737   0.00000000000000
   0.00000000000000   0.00000000000000  14.54310256486049
Ca Fe O 
8 8 20 
Direct(36) [A8B8C20] 
   0.50230466488873   0.01526052638864   0.10792008311943  Ca    
   0.99769533511127   0.51526052638864   0.89207991688057  Ca    
   0.49769533511127   0.98473947361136   0.60792008311943  Ca    
   0.00230466488873   0.48473947361136   0.39207991688057  Ca    
   0.49769533511127   0.98473947361136   0.89207991688057  Ca    
   0.00230466488873   0.48473947361136   0.10792008311943  Ca    
   0.50230466488873   0.01526052638864   0.39207991688057  Ca    
   0.99769533511127   0.51526052638864   0.60792008311943  Ca    
   0.00000000000000   0.00000000000000   0.00000000000000  Fe    
   0.50000000000000   0.50000000000000   0.00000000000000  Fe    
   0.00000000000000   0.00000000000000   0.50000000000000  Fe    
   0.50000000000000   0.50000000000000   0.50000000000000  Fe    
   0.04037165392342   0.94729258976264   0.25000000000000  Fe    
   0.45962834607658   0.44729258976264   0.75000000000000  Fe    
   0.95962834607658   0.05270741023736   0.75000000000000  Fe    
   0.54037165392342   0.55270741023736   0.25000000000000  Fe    
   0.75025481405001   0.24978588039144   0.99011559168852  O     
   0.74974518594999   0.74978588039144   0.00988440831148  O     
   0.24974518594999   0.75021411960856   0.49011559168852  O     
   0.25025481405001   0.25021411960856   0.50988440831148  O     
   0.24974518594999   0.75021411960856   0.00988440831148  O     
   0.25025481405001   0.25021411960856   0.99011559168852  O     
   0.75025481405001   0.24978588039144   0.50988440831148  O     
   0.74974518594999   0.74978588039144   0.49011559168852  O     
   0.99092879499610   0.04564333299906   0.13364506960107  O     
   0.50907120500390   0.54564333299906   0.86635493039893  O     
   0.00907120500390   0.95435666700094   0.63364506960107  O     
   0.49092879499610   0.45435666700093   0.36635493039893  O     
   0.00907120500390   0.95435666700094   0.86635493039893  O     
   0.49092879499610   0.45435666700093   0.13364506960107  O     
   0.99092879499610   0.04564333299906   0.36635493039893  O     
   0.50907120500390   0.54564333299906   0.63364506960107  O     
   0.38328663678105   0.87073696508699   0.25000000000000  O     
   0.11671336321895   0.37073696508699   0.75000000000000  O     
   0.61671336321895   0.12926303491301   0.75000000000000  O     
   0.88328663678105   0.62926303491301   0.25000000000000  O     
