Fe1O3Ti1   [RHL,RHL1,hR10] (STD_PRIM doi  [RHL,RHL1,hR10] (STD_PRIM doi:10.1016/j.commatsci.2010.05.010)
1.000000
   4.45273798799268  -2.48019928449814   0.00000000000000
   4.45273798799268   2.48019928449814   0.00000000000000
   3.07125349296669   0.00000000000000   4.06763642211027
Fe O Ti 
2 6 2 
Direct(10) [A2B6C2] 
   0.33977714056587   0.33977714056587   0.33977714056587  Fe    
   0.66022285943413   0.66022285943413   0.66022285943413  Fe    
   0.56951176327717   0.93319626271718   0.25816515149514  O     
   0.25816515149514   0.56951176327717   0.93319626271718  O     
   0.93319626271718   0.25816515149514   0.56951176327717  O     
   0.43048823672283   0.06680373728282   0.74183484850486  O     
   0.74183484850486   0.43048823672283   0.06680373728282  O     
   0.06680373728282   0.74183484850486   0.43048823672283  O     
   0.14953889760157   0.14953889760156   0.14953889760157  Ti    
   0.85046110239843   0.85046110239843   0.85046110239843  Ti    
