Ba1O2   [BCT,BCT2,tI6] (STD_PRIM doi:10.  [BCT,BCT2,tI6] (STD_PRIM doi:10.1016/j.commatsci.2010.05.010)
1.000000
  -1.93264796664990   1.93264796664990   3.48760513834638
   1.93264796664990  -1.93264796664990   3.48760513834638
   1.93264796664990   1.93264796664990  -3.48760513834638
Ba O 
1 2 
Direct(3) [A1B2] 
   0.00000000000000   0.00000000000000   0.00000000000000  Ba    
   0.39229156488290   0.39229156488290   0.00000000000000  O     
   0.60770843511710   0.60770843511710   0.00000000000000  O     
