Ca1Fe2O4   [ORC,ORC,oP28] (STD_PRIM doi:  [ORC,ORC,oP28] (STD_PRIM doi:10.1016/j.commatsci.2010.05.010)
1.000000
   2.89744640596519   0.00000000000000   0.00000000000000
   0.00000000000000   8.64573791703186   0.00000000000000
   0.00000000000000   0.00000000000000   9.96598654321726
Ca Fe O 
4 8 16 
Direct(28) [A4B8C16] 
   0.25000000000000   0.24160894463184   0.65461494553592  Ca    
   0.75000000000000   0.25839105536816   0.15461494553592  Ca    
   0.75000000000000   0.75839105536816   0.34538505446408  Ca    
   0.25000000000000   0.74160894463184   0.84538505446408  Ca    
   0.25000000000000   0.08404959948132   0.39379005736275  Fe    
   0.75000000000000   0.41595040051868   0.89379005736275  Fe    
   0.75000000000000   0.91595040051868   0.60620994263725  Fe    
   0.25000000000000   0.58404959948132   0.10620994263725  Fe    
   0.25000000000000   0.06020803559583   0.88314546744346  Fe    
   0.75000000000000   0.43979196440417   0.38314546744346  Fe    
   0.75000000000000   0.93979196440417   0.11685453255654  Fe    
   0.25000000000000   0.56020803559583   0.61685453255654  Fe    
   0.25000000000000   0.29819577443018   0.34595527687974  O     
   0.75000000000000   0.20180422556982   0.84595527687974  O     
   0.75000000000000   0.70180422556982   0.65404472312026  O     
   0.25000000000000   0.79819577443018   0.15404472312026  O     
   0.25000000000000   0.38785115565681   0.01838715780804  O     
   0.75000000000000   0.11214884434319   0.51838715780804  O     
   0.75000000000000   0.61214884434321   0.98161284219196  O     
   0.25000000000000   0.88785115565679   0.48161284219196  O     
   0.25000000000000   0.47284209015319   0.78645838859916  O     
   0.75000000000000   0.02715790984681   0.28645838859916  O     
   0.75000000000000   0.52715790984681   0.21354161140084  O     
   0.25000000000000   0.97284209015319   0.71354161140084  O     
   0.25000000000000   0.07525635309655   0.07222570741974  O     
   0.75000000000000   0.42474364690345   0.57222570741974  O     
   0.75000000000000   0.92474364690345   0.92777429258026  O     
   0.25000000000000   0.57525635309655   0.42777429258026  O     
