Ba1O2   [BCT,BCT2,tI6] (STD_PRIM doi:10.  [BCT,BCT2,tI6] (STD_PRIM doi:10.1016/j.commatsci.2010.05.010)
1.000000
  -1.91767042933743   1.91767042933743   3.43788265521876
   1.91767042933743  -1.91767042933743   3.43788265521876
   1.91767042933743   1.91767042933743  -3.43788265521876
Ba O 
1 2 
Direct(3) [A1B2] 
   0.00000000000000   0.00000000000000   0.00000000000000  Ba    
   0.39151394709439   0.39151394709439   0.00000000000000  O     
   0.60848605290561   0.60848605290561  -0.00000000000000  O     
