Li1O3Ta1   [RHL,RHL1,hR10] (STD_PRIM doi  [RHL,RHL1,hR10] (STD_PRIM doi:10.1016/j.commatsci.2010.05.010)
1.000000
   4.79130287186876  -2.54650025699959   0.00000000000000
   4.79130287186876   2.54650025699959   0.00000000000000
   3.43787902613935   0.00000000000000   4.19788453515673
Li O Ta 
2 6 2 
Direct(10) [A2B6C2] 
   0.28301601519185   0.28301601519185   0.28301601519185  Li    
   0.78301601519185   0.78301601519185   0.78301601519185  Li    
   0.11480029351916   0.36913915952981   0.72471088725367  O     
   0.72471088725367   0.11480029351916   0.36913915952981  O     
   0.36913915952981   0.72471088725367   0.11480029351916  O     
   0.22471088725367   0.86913915952981   0.61480029351916  O     
   0.86913915952981   0.61480029351916   0.22471088725367  O     
   0.61480029351916   0.22471088725367   0.86913915952981  O     
   0.99893364450549   0.99893364450549   0.99893364450549  Ta    
   0.49893364450549   0.49893364450549   0.49893364450549  Ta    
