Cu1Fe1O2   [RHL,RHL1,hR4] (STD_PRIM doi:  [RHL,RHL1,hR4] (STD_PRIM doi:10.1016/j.commatsci.2010.05.010)
1.000000
   5.83942676805868  -1.53483924157606   0.00000000000000
   5.83942676805868   1.53483924157606   0.00000000000000
   5.43600848899617   0.00000000000000   2.62763166835908
Cu Fe O 
1 1 2 
Direct(4) [A1B1C2] 
   0.00000000000000   0.00000000000000   0.00000000000000 
   0.50000000000000   0.50000000000000   0.50000000000000 
   0.10667161566643   0.10667161566643   0.10667161566643 
   0.89332838433357   0.89332838433357   0.89332838433357 
