Mn1Mo1O4   [MCL,MCL,mP12] (STD_PRIM doi:  [MCL,MCL,mP12] (STD_PRIM doi:10.1016/j.commatsci.2010.05.010)
1.000000
   5.69808350995749   0.00000000000000   0.00000000000000
   0.00000000000000   4.72237610597172   0.00000000000000
   0.00000000000000   0.04358171734329   4.94719803354487
Mn Mo O 
2 2 8 
Direct(12) [A2B2C8] 
   0.17573538469251   0.00000000000000   0.25000000000000  Mn    
   0.82426461530749   0.00000000000000   0.75000000000000  Mn    
   0.31792579025042   0.50000000000000   0.75000000000000  Mo    
   0.68207420974958   0.50000000000000   0.25000000000000  Mo    
   0.12311844532416   0.75681246496037   0.60035928717053  O     
   0.12311844532416   0.24318753503962   0.89964071282947  O     
   0.87688155467584   0.24318753503962   0.39964071282947  O     
   0.87688155467584   0.75681246496037   0.10035928717053  O     
   0.39291281665741   0.71662523887447   0.06148196530716  O     
   0.39291281665741   0.28337476112553   0.43851803469284  O     
   0.60708718334259   0.28337476112553   0.93851803469285  O     
   0.60708718334259   0.71662523887447   0.56148196530715  O     
