O5Ti3   [MCLC,MCLC1,mS32] (STD_PRIM doi:  [ORCC,ORCC,oS32] (STD_PRIM doi:10.1016/j.commatsci.2010.05.010)
1.000000
   1.89503450997360  -4.94342789550242   0.00000000000000
   1.89503450997360   4.94342789550242   0.00000000000000
   0.00000000000000   0.00000000000000  10.06475258389162
O Ti 
10 6 
Direct(16) [A10B6] 
   0.23282746639220   0.76717253360780   0.25000362526522  O     
   0.76717253360780   0.23282746639220   0.74999637473478  O     
   0.05145471601197   0.94854528398802   0.87723688678420  O     
   0.94854528398803   0.05145471601198   0.12276311321580  O     
   0.05144624212680   0.94855375787320   0.62277106063069  O     
   0.94855375787320   0.05144624212680   0.37722893936931  O     
   0.31732751985292   0.68267248014708   0.93094102105958  O     
   0.68267248014708   0.31732751985292   0.06905897894042  O     
   0.31732244385028   0.68267755614971   0.56905055931473  O     
   0.68267755614972   0.31732244385029   0.43094944068527  O     
   0.80197255064869   0.19802744935131   0.25000116014686  Ti    
   0.19802744935131   0.80197255064869   0.74999883985314  Ti    
   0.13047908365617   0.86952091634381   0.05697889012088  Ti    
   0.86952091634383   0.13047908365619   0.94302110987912  Ti    
   0.13048267160999   0.86951732839001   0.44303574714706  Ti    
   0.86951732839001   0.13048267160997   0.55696425285294  Ti    
