O5Ti3   [MCLC,MCLC1,mS32] (STD_PRIM doi:  [MCLC,MCLC1,mS32] (STD_PRIM doi:10.1016/j.commatsci.2010.05.010)
1.000000
   1.87409046708656   4.90472725744049   0.00000000000000
  -1.87409046708656   4.90472725744049   0.00000000000000
   0.00000000000000   0.08692422908609   9.96857856810650
O Ti 
10 6 
Direct(16) [A10B6] 
   0.23471502700219   0.23471502700219   0.75148486265852  O     
   0.76528497299781   0.76528497299781   0.24851513734148  O     
   0.04774427704407   0.04774427704407   0.13074029993716  O     
   0.95225572295593   0.95225572295593   0.86925970006284  O     
   0.05438200531503   0.05438200531503   0.38088934305442  O     
   0.94561799468497   0.94561799468497   0.61911065694558  O     
   0.32108850744779   0.32108850744779   0.06348684500554  O     
   0.67891149255221   0.67891149255221   0.93651315499446  O     
   0.31628635672321   0.31628635672321   0.42950223435677  O     
   0.68371364327679   0.68371364327679   0.57049776564323  O     
   0.80173443192655   0.80173443192655   0.75378239724730  Ti    
   0.19826556807345   0.19826556807345   0.24621760275270  Ti    
   0.12782929240983   0.12782929240983   0.94955536933209  Ti    
   0.87217070759017   0.87217070759017   0.05044463066791  Ti    
   0.13006851902358   0.13006851902358   0.56182974918895  Ti    
   0.86993148097642   0.86993148097642   0.43817025081105  Ti    
