Ca1Fe2O4   [ORC,ORC,oP28] (STD_PRIM doi:  [ORC,ORC,oP28] (STD_PRIM doi:10.1016/j.commatsci.2010.05.010)
1.000000
   3.00881363785148   0.00000000000000   0.00000000000000
   0.00000000000000   9.52664731169303   0.00000000000000
   0.00000000000000   0.00000000000000  10.65516122587410
Ca Fe O
4 8 16 
Direct(28) [A4B8C16] 
   0.25000000000000   0.24135612302630   0.65150075943851 
   0.75000000000000   0.25864387697370   0.15150075943851 
   0.75000000000000   0.75864387697370   0.34849924056149 
   0.25000000000000   0.74135612302630   0.84849924056149 
   0.25000000000000   0.08642053865415   0.39702007028263 
   0.75000000000000   0.41357946134585   0.89702007028263 
   0.75000000000000   0.91357946134585   0.60297992971737 
   0.25000000000000   0.58642053865415   0.10297992971737 
   0.25000000000000   0.06216237385755   0.88518530401169 
   0.75000000000000   0.43783762614245   0.38518530401169 
   0.75000000000000   0.93783762614245   0.11481469598831 
   0.25000000000000   0.56216237385755   0.61481469598831 
   0.25000000000000   0.30561618657662   0.32845734499436 
   0.75000000000000   0.19438381342338   0.82845734499436 
   0.75000000000000   0.69438381342338   0.67154265500564 
   0.25000000000000   0.80561618657662   0.17154265500564 
   0.25000000000000   0.37909695399311   0.01695846357073 
   0.75000000000000   0.12090304600689   0.51695846357073 
   0.75000000000000   0.62090304600690   0.98304153642927 
   0.25000000000000   0.87909695399311   0.48304153642927 
   0.25000000000000   0.46568462433997   0.78804733865133 
   0.75000000000000   0.03431537566003   0.28804733865133 
   0.75000000000000   0.53431537566003   0.21195266134867 
   0.25000000000000   0.96568462433997   0.71195266134867 
   0.25000000000000   0.08401027924846   0.07325771039112 
   0.75000000000000   0.41598972075154   0.57325771039112 
   0.75000000000000   0.91598972075154   0.92674228960888 
   0.25000000000000   0.58401027924846   0.42674228960888 
