K1O2   [BCT,BCT2,tI6] (STD_PRIM doi:10.1  [BCT,BCT2,tI6] (STD_PRIM doi:10.1016/j.commatsci.2010.05.010)
1.000000
  -1.98268255368559   1.98268255368559   3.38198151760022
   1.98268255368559  -1.98268255368559   3.38198151760022
   1.98268255368559   1.98268255368559  -3.38198151760022
K O 
1 2 
Direct(3) [A1B2] 
   0.50000000000000   0.50000000000000   0.00000000000000  K     
   0.10010484561282   0.10010484561282   0.00000000000000  O     
   0.89989515438718   0.89989515438718   0.00000000000000  O     
