Cu1Fe1O2   [RHL,RHL1,hR4] (STD_PRIM doi:  [RHL,RHL1,hR4] (STD_PRIM doi:10.1016/j.commatsci.2010.05.010)
1.000000
   5.87005774396719  -1.41282270814413   0.00000000000000
   5.87005774396719   1.41282270814413   0.00000000000000
   5.53001543233932   0.00000000000000   2.42333968734182
Cu Fe O 
1 1 2 
Direct(4) [A1B1C2] 
   0.00000000000000   0.00000000000000   0.00000000000000  Cu    
   0.50000000000000   0.50000000000000   0.50000000000000  Fe    
   0.10727958634761   0.10727958634760   0.10727958634760  O     
   0.89272041365240   0.89272041365240   0.89272041365240  O     
