Mo1O4Pb1   [BCT,BCT2,tI24] (STD_PRIM doi  [BCT,BCT2,tI24] (STD_PRIM doi:10.1016/j.commatsci.2010.05.010)
1.000000
  -2.72417338788169   2.72417338788169   5.99477732761295
   2.72417338788169  -2.72417338788169   5.99477732761295
   2.72417338788169   2.72417338788169  -5.99477732761295
Mo O Pb 
2 8 2 
Direct(12) [A2B8C2] 
   0.62500000000000   0.87500000000000   0.25000000000000  Mo    
   0.37500000000000   0.12500000000000   0.75000000000000  Mo    
   0.77591947230128   0.65198584284650   0.34198424834116  O     
   0.31000159450534   0.93393522396012   0.15801575165885  O     
   0.15198584284649   0.81000159450533   0.37606637054521  O     
   0.43393522396012   0.27591947230128   0.12393362945479  O     
   0.22408052769872   0.34801415715350   0.65801575165884  O     
   0.68999840549466   0.06606477603987   0.84198424834115  O     
   0.84801415715351   0.18999840549467   0.62393362945479  O     
   0.56606477603988   0.72408052769872   0.87606637054521  O     
   0.87500000000000   0.62500000000000   0.75000000000000  Pb    
   0.12500000000000   0.37500000000000   0.25000000000000  Pb    
