Mg2O4Si1   [ORC,ORC,oP28] (STD_PRIM doi:  [ORC,ORC,oP28] (STD_PRIM doi:10.1016/j.commatsci.2010.05.010)
1.000000
   4.71796510555280   0.00000000000000   0.00000000000000
   0.00000000000000   5.90801931078853   0.00000000000000
   0.00000000000000   0.00000000000000  10.05652135440126
Mg O Si 
8 16 4 
Direct(28) [A8B16C4] 
   0.00000000000000   0.00000000000000   0.00000000000000  Mg    
   0.50000000000000   0.00000000000000   0.50000000000000  Mg    
   0.00000000000000   0.50000000000000   0.00000000000000  Mg    
   0.50000000000000   0.50000000000000   0.50000000000000  Mg    
   0.99121266980047   0.75000000000000   0.27623122906346  Mg    
   0.49121266980047   0.25000000000000   0.22376877093654  Mg    
   0.00878733019953   0.25000000000000   0.72376877093654  Mg    
   0.50878733019953   0.75000000000000   0.77623122906346  Mg    
   0.76972139906738   0.75000000000000   0.09173309298273  O     
   0.26972139906738   0.25000000000000   0.40826690701727  O     
   0.23027860093262   0.25000000000000   0.90826690701727  O     
   0.73027860093262   0.75000000000000   0.59173309298273  O     
   0.22183329498979   0.75000000000000   0.44529103880374  O     
   0.72183329498979   0.25000000000000   0.05470896119626  O     
   0.77816670501021   0.25000000000000   0.55470896119626  O     
   0.27816670501021   0.75000000000000   0.94529103880374  O     
   0.27542731352198   0.96916386145913   0.16385907421700  O     
   0.77542731352198   0.03083613854087   0.33614092578300  O     
   0.72457268647802   0.46916386145913   0.83614092578300  O     
   0.22457268647802   0.53083613854087   0.66385907421700  O     
   0.72457268647802   0.03083613854087   0.83614092578300  O     
   0.22457268647802   0.96916386145913   0.66385907421700  O     
   0.27542731352198   0.53083613854087   0.16385907421700  O     
   0.77542731352198   0.46916386145913   0.33614092578300  O     
   0.42766549147417   0.75000000000000   0.09413917013243  Si    
   0.92766549147417   0.25000000000000   0.40586082986757  Si    
   0.57233450852583   0.25000000000000   0.90586082986757  Si    
   0.07233450852583   0.75000000000000   0.59413917013243  Si    
