Mn1Mo1O4   [MCL,MCL,mP12] (STD_PRIM doi:  [MCL,MCL,mP12] (STD_PRIM doi:10.1016/j.commatsci.2010.05.010)
1.000000
   5.51604997938692   0.00000000000000   0.00000000000000
   0.00000000000000   4.57809893746561   0.00000000000000
   0.00000000000000   0.14593615089977   4.84552238504851
Mn Mo O 
2 2 8 
Direct(12) [A2B2C8] 
   0.12948380171146  -0.00000000000000   0.25000000000000  Mn    
   0.87051619828854  -0.00000000000000   0.75000000000000  Mn    
   0.37402868840539   0.50000000000000   0.75000000000000  Mo    
   0.62597131159461   0.50000000000000   0.25000000000000  Mo    
   0.12634382739797   0.76755351836751   0.58258995198213  O     
   0.12634382739797   0.23244648163249   0.91741004801787  O     
   0.87365617260203   0.23244648163249   0.41741004801787  O     
   0.87365617260203   0.76755351836751   0.08258995198213  O     
   0.36621253683466   0.74896056661248   0.09356087292429  O     
   0.36621253683466   0.25103943338752   0.40643912707570  O     
   0.63378746316534   0.25103943338752   0.90643912707571  O     
   0.63378746316534   0.74896056661248   0.59356087292429  O     
