Ca2O7V2   [TRI,TRI1b,aP22] (STD_PRIM doi  [TRI,TRI1a,aP22] (STD_PRIM doi:10.1016/j.commatsci.2010.05.010)
1.000000
   6.67064191803950   0.00000000000000   0.00000000000000
   0.87443060385583   6.89254006233712   0.00000000000000
   3.09796009612488   0.11442564925226   6.30370832241797
Ca O V 
4 14 4 
Direct(22) [A4B14C4] 
   0.74300758814134   0.34062528696643   0.82881914496368  Ca    
   0.25699241185866   0.65937471303357   0.17118085503632  Ca    
   0.73466132386718   0.94649654928385   0.23699882389207  Ca    
   0.26533867613282   0.05350345071615   0.76300117610793  Ca    
   0.04964285759392   0.69898979219554   0.56283847530287  O     
   0.95035714240608   0.30101020780446   0.43716152469713  O     
   0.53620005972050   0.40242394372760   0.62974624874903  O     
   0.46379994027950   0.59757605627240   0.37025375125097  O     
   0.65696656587392   0.94701031104165   0.60256816344435  O     
   0.34303343412608   0.05298968895835   0.39743183655564  O     
   0.64037152866376   0.68053849740065   0.92166604412742  O     
   0.35962847133624   0.31946150259935   0.07833395587258  O     
   0.86592351025445   0.00591605220583   0.85954214208253  O     
   0.13407648974555   0.99408394779418   0.14045785791747  O     
   0.75338421127627   0.28494348664350   0.17063693247096  O     
   0.24661578872373   0.71505651335650   0.82936306752904  O     
   0.89016634299045   0.62930703506960   0.23811264975700  O     
   0.10983365700955   0.37069296493040   0.76188735024300  O     
   0.72561806231318   0.44804184698194   0.34552249720836  V     
   0.27438193768684   0.55195815301806   0.65447750279164  V     
   0.80336301102148   0.83314265364904   0.73301957835636  V     
   0.19663698897852   0.16685734635096   0.26698042164364  V     
