Ca1Li1N1   [ORC,ORC,oP12] (STD_PRIM doi:  [ORC,ORC,oP12] (STD_PRIM doi:10.1016/j.commatsci.2010.05.010)
1.000000
   3.64479542933729   0.00000000000000   0.00000000000000
   0.00000000000000   5.51486521356337   0.00000000000000
   0.00000000000000   0.00000000000000   8.47025736858077
Ca Li N 
4 4 4 
Direct(12) [A4B4C4] 
   0.75000000000000   0.97422792478071   0.15628928086629  Ca    
   0.25000000000000   0.47422792478071   0.34371071913371  Ca    
   0.25000000000000   0.02577207521929   0.84371071913371  Ca    
   0.75000000000000   0.52577207521929   0.65628928086629  Ca    
   0.75000000000000   0.42600342313198   0.04660834768787  Li    
   0.25000000000000   0.92600342313198   0.45339165231213  Li    
   0.25000000000000   0.57399657686802   0.95339165231213  Li    
   0.75000000000000   0.07399657686802   0.54660834768787  Li    
   0.75000000000000   0.76106423966268   0.40767011582422  N     
   0.25000000000000   0.26106423966268   0.09232988417578  N     
   0.25000000000000   0.23893576033732   0.59232988417578  N     
   0.75000000000000   0.73893576033732   0.90767011582422  N     
