Na1O2   [CUB,CUB,cP12] (STD_PRIM doi:10.  [CUB,CUB,cP12] (STD_PRIM doi:10.1016/j.commatsci.2010.05.010)
1.000000
   5.27874856946537   0.00000000000000   0.00000000000000
   0.00000000000000   5.27874856946537   0.00000000000000
   0.00000000000000   0.00000000000000   5.27874856946537
Na O 
4 8 
Direct(12) [A4B8] 
   0.00000000000000   0.00000000000000   0.00000000000000  Na    
   0.50000000000000   0.00000000000000   0.50000000000000  Na    
   0.00000000000000   0.50000000000000   0.50000000000000  Na    
   0.50000000000000   0.50000000000000   0.00000000000000  Na    
   0.57292808989742   0.57292808989742   0.42707191010258  O     
   0.92707191010258   0.42707191010258   0.92707191010258  O     
   0.42707191010258   0.07292808989742   0.07292808989742  O     
   0.07292808989742   0.92707191010258   0.57292808989742  O     
   0.42707191010258   0.42707191010258   0.57292808989742  O     
   0.07292808989742   0.57292808989742   0.07292808989742  O     
   0.57292808989742   0.92707191010258   0.92707191010258  O     
   0.92707191010258   0.07292808989742   0.42707191010258  O     
