Mg2O4Si1   [ORC,ORC,oP28] (STD_PRIM doi:  [ORC,ORC,oP28] (STD_PRIM doi:10.1016/j.commatsci.2010.05.010)
1.000000
   4.74263775264998   0.00000000000000   0.00000000000000
   0.00000000000000   5.95893700652838   0.00000000000000
   0.00000000000000   0.00000000000000  10.14956448792230
Mg O Si 
8 16 4 
Direct(28) [A8B16C4] 
   0.00000000000000   0.00000000000000   0.00000000000000  Mg    
   0.50000000000000   0.00000000000000   0.50000000000000  Mg    
   0.00000000000000   0.50000000000000   0.00000000000000  Mg    
   0.50000000000000   0.50000000000000   0.50000000000000  Mg    
   0.99063159997107   0.75000000000000   0.27666819887723  Mg    
   0.49063159997107   0.25000000000000   0.22333180112277  Mg    
   0.00936840002893   0.25000000000000   0.72333180112277  Mg    
   0.50936840002893   0.75000000000000   0.77666819887723  Mg    
   0.76598220395628   0.75000000000000   0.09147146365169  O     
   0.26598220395628   0.25000000000000   0.40852853634831  O     
   0.23401779604372   0.25000000000000   0.90852853634831  O     
   0.73401779604372   0.75000000000000   0.59147146365169  O     
   0.22205589460904   0.75000000000000   0.44637559919965  O     
   0.72205589460904   0.25000000000000   0.05362440080035  O     
   0.77794410539096   0.25000000000000   0.55362440080035  O     
   0.27794410539096   0.75000000000000   0.94637559919965  O     
   0.27609099627788   0.96750124952846   0.16316254313340  O     
   0.77609099627788   0.03249875047154   0.33683745686660  O     
   0.72390900372212   0.46750124952846   0.83683745686661  O     
   0.22390900372212   0.53249875047154   0.66316254313339  O     
   0.72390900372212   0.03249875047154   0.83683745686661  O     
   0.22390900372212   0.96750124952846   0.66316254313339  O     
   0.27609099627788   0.53249875047154   0.16316254313340  O     
   0.77609099627788   0.46750124952846   0.33683745686660  O     
   0.42605914541260   0.75000000000000   0.09393740833749  Si    
   0.92605914541260   0.25000000000000   0.40606259166251  Si    
   0.57394085458740   0.25000000000000   0.90606259166251  Si    
   0.07394085458740   0.75000000000000   0.59393740833749  Si    
