Li2O2   [HEX,HEX,hP8] (STD_PRIM doi:10.1  [HEX,HEX,hP8] (STD_PRIM doi:10.1016/j.commatsci.2010.05.010)
1.000000
   1.55748014431309  -2.69763474172998   0.00000000000000
   1.55748014431309   2.69763474172998   0.00000000000000
   0.00000000000000   0.00000000000000   7.54554390804237
Li O 
4 4 
Direct(8) [A4B4] 
   0.00000000000000   0.00000000000000   0.00000000000000  Li    
   0.00000000000000   0.00000000000000   0.50000000000000  Li    
   0.33331981798304   0.66665990899153   0.25000000000000  Li    
   0.66668018201696   0.33334009100847   0.75000000000000  Li    
   0.33334697226415   0.66667348613206   0.64800761938342  O     
   0.66665302773585   0.33332651386794   0.14800761938342  O     
   0.66665302773585   0.33332651386794   0.35199238061658  O     
   0.33334697226415   0.66667348613206   0.85199238061658  O     
