Li2O1   [FCC,FCC,cF12] (STD_PRIM doi:10.  [FCC,FCC,cF12] (STD_PRIM doi:10.1016/j.commatsci.2010.05.010)
1.224745
   0.00000000000000   1.89149036170670   1.89149036170670
   1.89149036170670   0.00000000000000   1.89149036170670
   1.89149036170670   1.89149036170670   0.00000000000000
Li O 
2 1 
Direct(3) [A2B1] 
   0.25000000000000   0.25000000000000   0.25000000000000  Li    
   0.75000000000000   0.75000000000000   0.75000000000000  Li    
   0.00000000000000   0.00000000000000   0.00000000000000  O     
