Ca1Li1N1   [ORC,ORC,oP12] (STD_PRIM doi:  [ORC,ORC,oP12] (STD_PRIM doi:10.1016/j.commatsci.2010.05.010)
1.000000
   3.58780568333657   0.00000000000000   0.00000000000000
   0.00000000000000   5.42304694732904   0.00000000000000
   0.00000000000000   0.00000000000000   8.31534350325953
Ca Li N 
4 4 4 
Direct(12) [A4B4C4] 
   0.75000000000000   0.97443097694591   0.15601965036703  Ca    
   0.25000000000000   0.47443097694591   0.34398034963297  Ca    
   0.25000000000000   0.02556902305409   0.84398034963297  Ca    
   0.75000000000000   0.52556902305409   0.65601965036703  Ca    
   0.75000000000000   0.42719570145214   0.04853878996185  Li    
   0.25000000000000   0.92719570145214   0.45146121003815  Li    
   0.25000000000000   0.57280429854786   0.95146121003815  Li    
   0.75000000000000   0.07280429854786   0.54853878996185  Li    
   0.75000000000000   0.75929647831637   0.40693628185017  N     
   0.25000000000000   0.25929647831637   0.09306371814983  N     
   0.25000000000000   0.24070352168363   0.59306371814983  N     
   0.75000000000000   0.74070352168363   0.90693628185017  N     
