Ca2O7V2   [TRI,TRI1b,aP22] (STD_PRIM doi  [TRI,TRI1a,aP22] (STD_PRIM doi:10.1016/j.commatsci.2010.05.010)
1.000000
   6.55041195387104   0.00000000000000   0.00000000000000
   0.75012819312034   6.74067895678976   0.00000000000000
   3.00334553133539   0.12411289198049   6.18268793175019
Ca O V 
4 14 4 
Direct(22) [A4B14C4] 
   0.74001322358550   0.33943492608254   0.83188114033928  Ca    
   0.25998677641450   0.66056507391746   0.16811885966072  Ca    
   0.72834083613164   0.93216157831308   0.23379140436953  Ca    
   0.27165916386836   0.06783842168692   0.76620859563047  Ca    
   0.05465154120662   0.69777468861659   0.55530876585563  O     
   0.94534845879338   0.30222531138341   0.44469123414437  O     
   0.52894622665753   0.39460787112478   0.63290503276856  O     
   0.47105377334247   0.60539212887522   0.36709496723144  O     
   0.65894460759980   0.94808175346658   0.59746773391460  O     
   0.34105539240019   0.05191824653342   0.40253226608540  O     
   0.64248532469853   0.68065364020508   0.92286460025815  O     
   0.35751467530147   0.31934635979492   0.07713539974185  O     
   0.87408259520397   0.00884458771451   0.85608764006886  O     
   0.12591740479604   0.99115541228551   0.14391235993114  O     
   0.74508107166778   0.27515102131268   0.17319849582593  O     
   0.25491892833222   0.72484897868732   0.82680150417407  O     
   0.90022579159867   0.62224951842854   0.22663081367072  O     
   0.09977420840133   0.37775048157146   0.77336918632928  O     
   0.72538100763757   0.44302476271806   0.34530390959468  V     
   0.27461899236244   0.55697523728194   0.65469609040532  V     
   0.80845475772653   0.83410659761731   0.72770806242625  V     
   0.19154524227347   0.16589340238269   0.27229193757375  V     
