Cu1Fe1O2   [RHL,RHL1,hR4] (STD_PRIM doi:  [RHL,RHL1,hR4] (STD_PRIM doi:10.1016/j.commatsci.2010.05.010)
1.000000
   5.79431476229702  -1.50597284351739   0.00000000000000
   5.79431476229702   1.50597284351739   0.00000000000000
   5.40290450958359   0.00000000000000   2.57888747918678
Cu Fe O 
1 1 2 
Direct(4) [A1B1C2] 
   0.00000000000000   0.00000000000000   0.00000000000000  Cu    
   0.50000000000000   0.50000000000000   0.50000000000000  Fe    
   0.10594899973451   0.10594899973451   0.10594899973452  O     
   0.89405100026549   0.89405100026549   0.89405100026549  O     
