Mg1O1   [FCC,FCC,cF8] (STD_PRIM doi:10.1  [FCC,FCC,cF8] (STD_PRIM doi:10.1016/j.commatsci.2010.05.010)
1.224745
   0.00000000000000   1.73568248770103   1.73568248770103
   1.73568248770103   0.00000000000000   1.73568248770103
   1.73568248770103   1.73568248770103   0.00000000000000
Mg O 
1 1 
Direct(2) [A1B1] 
   0.00000000000000   0.00000000000000   0.00000000000000  Mg    
   0.50000000000000   0.50000000000000   0.50000000000000  O     
